50
    59    71    82    19    92    79    38    13    89    49    90    61    63    95    61    48    71    97    64    75     6     2     1    59     5    21    67    32    44    32    46    41    42    79    13    50    55    68    33    38    83    76    64    99    64    42    52    44    79    72
     4     3     8     3     1     7     7     4     6     5     1     6     1     6     4    10    10     7     8     6     2     4     2     5     3     5     2     9     7     5     3     4     5    10     3     4     4     8     3     4    10     2     5     8     5     8     3    10    10    10
  1287  1806  2694   684  1569  2299  1315  1381  1406   642   645  2169  1201  2216  2092  1229  2434   646   957  2668  1191  1985  2302   912  2400  2029   855  1080  2461  1782  1247  1201  1305  2210  2268  1686  2458  2262  1844   623  1126  2352   920  1069  1696  2375  1896  1992  1458   827
